(set-logic QF_S)
(declare-fun var0 () String)
(declare-fun var1 () String)
(declare-fun var2 () String)
(declare-fun var3 () String)
(declare-fun var4 () String)
(declare-fun var5 () String)
(declare-fun var6 () String)
(declare-fun var7 () String)
(declare-fun var8 () String)
(declare-fun var9 () String)
(declare-fun var10 () String)
(declare-fun var11 () String)
(declare-fun var12 () String)
(declare-fun var13 () String)
(declare-fun var14 () String)
(declare-fun var15 () String)
(declare-fun var16 () String)
(declare-fun var17 () String)
(declare-fun var18 () String)
(declare-fun var19 () String)
(declare-fun var20 () String)
(declare-fun var21 () String)
(declare-fun var22 () String)
(declare-fun var23 () String)
(declare-fun var24 () String)
(declare-fun var25 () String)
(declare-fun var26 () String)
(declare-fun var27 () String)
(declare-fun var28 () String)
(declare-fun var29 () String)
(declare-fun var30 () String)
(declare-fun var31 () String)
(declare-fun var32 () String)
(declare-fun var33 () String)
(declare-fun var34 () String)
(declare-fun var35 () String)
(declare-fun var36 () String)
(declare-fun var37 () String)
(declare-fun var38 () String)
(declare-fun var39 () String)
(declare-fun var40 () String)
(declare-fun var41 () String)
(declare-fun var42 () String)
(declare-fun var43 () String)
(declare-fun var44 () String)
(declare-fun var45 () String)
(declare-fun var46 () String)
(declare-fun var47 () String)
(declare-fun var48 () String)
(declare-fun var49 () String)
(declare-fun var50 () String)
(declare-fun var51 () String)
(declare-fun var52 () String)
(declare-fun var53 () String)
(declare-fun var54 () String)
(declare-fun var55 () String)
(declare-fun var56 () String)
(declare-fun var57 () String)
(declare-fun var58 () String)
(declare-fun var59 () String)
(declare-fun var60 () String)
(assert (= var0 (str.++ var1 var2)))
(assert (= var2 (str.++ var3 var4)))
(assert (= var4 (str.++ var5 var6)))
(assert (= var6 (str.++ var7 var8)))
(assert (= var8 (str.++ var9 var10)))
(assert (= var10 (str.++ var11 var12)))
(assert (= var12 (str.++ var13 var14)))
(assert (= var14 (str.++ var15 var16)))
(assert (= var16 (str.++ var17 var18)))
(assert (= var18 (str.++ var19 var20)))
(assert (= var20 (str.++ var21 var22)))
(assert (= var22 (str.++ var23 var24)))
(assert (= var24 (str.++ var25 var26)))
(assert (= var26 (str.++ var27 var28)))
(assert (= var28 (str.++ var29 var30)))
(assert (= var30 (str.++ var31 var32)))
(assert (= var32 (str.++ var33 var34)))
(assert (= var34 (str.++ var35 var36)))
(assert (= var36 (str.++ var37 var38)))
(assert (= var38 (str.++ var39 var40)))
(assert (= var40 (str.++ var41 var42)))
(assert (= var42 (str.++ var43 var44)))
(assert (= var44 (str.++ var45 var46)))
(assert (= var46 (str.++ var47 var48)))
(assert (= var48 (str.++ var49 var50)))
(assert (= var50 (str.++ var51 var52)))
(assert (= var52 (str.++ var53 var54)))
(assert (= var54 (str.++ var55 var56)))
(assert (= var56 (str.++ var57 var58)))
(assert (= var58 (str.++ var59 var60)))
(assert (= var0 "solution"))
(assert (= "G" (str.at var28 643)))
(assert (= "K" (str.at var6 37)))
(assert (= "a" (str.at var50 248)))
(assert (= "," (str.at var39 110)))
(assert (= "j" (str.at var25 335)))
(assert (= "T" (str.at var4 177)))
(assert (= "d" (str.at var46 163)))
(assert (= "7" (str.at var50 58)))
(assert (= "e" (str.at var43 785)))
(assert (= "\\" (str.at var58 52)))
(assert (= "-" (str.at var7 340)))
(assert (= "J" (str.at var28 756)))
(assert (= "H" (str.at var12 408)))
(assert (= "+" (str.at var13 952)))
(assert (= "+" (str.at var12 470)))
(assert (= "$" (str.at var59 346)))
(assert (= "]" (str.at var0 211)))
(assert (= "1" (str.at var57 33)))
(assert (= "?" (str.at var53 932)))
(assert (= "v" (str.at var48 145)))
(assert (= "w" (str.at var3 471)))
(assert (= "^" (str.at var26 854)))
(assert (= "N" (str.at var48 672)))
(assert (= "v" (str.at var59 426)))
(assert (= "M" (str.at var19 718)))
(assert (= "<" (str.at var21 506)))
(assert (= "d" (str.at var19 861)))
(assert (= "_" (str.at var25 974)))
(assert (= "P" (str.at var44 59)))
(assert (= "u" (str.at var18 391)))
(assert (= "6" (str.at var42 566)))
(assert (= "8" (str.at var40 826)))
(assert (= "W" (str.at var23 489)))
(assert (= "n" (str.at var20 517)))
(assert (= "G" (str.at var50 563)))
(assert (= "M" (str.at var18 218)))
(assert (= "U" (str.at var26 372)))
(assert (= "d" (str.at var0 129)))
(assert (= "7" (str.at var44 131)))
(assert (= "0" (str.at var53 37)))
(assert (= "l" (str.at var5 42)))
(assert (= "x" (str.at var24 645)))
(assert (= "*" (str.at var36 726)))
(assert (= "r" (str.at var19 574)))
(assert (= "g" (str.at var53 938)))
(assert (= "`" (str.at var26 339)))
(assert (= "O" (str.at var49 637)))
(assert (= "i" (str.at var2 821)))
(assert (= "L" (str.at var8 574)))
(assert (= "_" (str.at var6 533)))
(assert (= "0" (str.at var24 507)))
(assert (= "[" (str.at var60 619)))
(assert (= "0" (str.at var50 847)))
(assert (= "|" (str.at var48 657)))
(assert (= "m" (str.at var56 716)))
(assert (= "~" (str.at var58 1)))
(assert (= "=" (str.at var50 424)))
(assert (= "9" (str.at var50 564)))
(assert (= "g" (str.at var42 606)))
(assert (= "N" (str.at var32 565)))
(assert (= "g" (str.at var48 247)))
(assert (= "r" (str.at var42 633)))
(assert (= "u" (str.at var49 258)))
(assert (= "p" (str.at var40 982)))
(assert (= "Y" (str.at var14 182)))
(assert (= "r" (str.at var13 663)))
(assert (= """" (str.at var12 638)))
(assert (= "q" (str.at var39 389)))
(assert (= "," (str.at var13 879)))
(assert (= "!" (str.at var13 516)))
(assert (= "g" (str.at var17 878)))
(assert (= "6" (str.at var55 778)))
(assert (= "," (str.at var34 117)))
(assert (= "r" (str.at var33 21)))
(assert (= "%" (str.at var45 446)))
(assert (= "2" (str.at var21 314)))
(assert (= "o" (str.at var52 476)))
(assert (= "$" (str.at var36 837)))
(assert (= "R" (str.at var17 284)))
(assert (= """" (str.at var6 390)))
(assert (= "j" (str.at var24 760)))
(assert (= "0" (str.at var57 583)))
(assert (= "o" (str.at var34 75)))
(assert (= "/" (str.at var4 296)))
(assert (= "2" (str.at var31 495)))
(assert (= "u" (str.at var14 286)))
(assert (= "0" (str.at var48 588)))
(assert (= "x" (str.at var44 451)))
(assert (= "k" (str.at var46 761)))
(assert (= "=" (str.at var26 730)))
(assert (= "<" (str.at var5 21)))
(assert (= "h" (str.at var28 993)))
(assert (= "/" (str.at var1 912)))
(assert (= "#" (str.at var57 958)))
(assert (= "d" (str.at var51 157)))
(assert (= "V" (str.at var6 945)))
(assert (= "N" (str.at var19 54)))
(assert (= "|" (str.at var50 589)))
(assert (= "N" (str.at var34 3)))
(assert (= "A" (str.at var50 487)))
(assert (= "X" (str.at var48 813)))
(assert (= "9" (str.at var21 440)))
(assert (= "\\" (str.at var32 708)))
(assert (= "z" (str.at var3 462)))
(assert (= "%" (str.at var37 401)))
(assert (= "%" (str.at var30 742)))
(assert (= "T" (str.at var18 995)))
(assert (= "V" (str.at var52 726)))
(assert (= "u" (str.at var59 698)))
(assert (= "q" (str.at var54 89)))
(assert (= "," (str.at var37 250)))
(assert (= "F" (str.at var42 520)))
(assert (= ">" (str.at var1 428)))
(assert (= "%" (str.at var7 700)))
(assert (= "6" (str.at var59 507)))
(assert (= "2" (str.at var27 284)))
(assert (= "/" (str.at var3 848)))
(assert (= "r" (str.at var0 99)))
(assert (= "g" (str.at var34 436)))
(assert (= "0" (str.at var15 999)))
(assert (= "D" (str.at var35 990)))
(assert (= "y" (str.at var48 421)))
(assert (= "j" (str.at var14 383)))
(assert (= "M" (str.at var34 872)))
(assert (= "b" (str.at var42 231)))
(assert (= "q" (str.at var31 865)))
(assert (= "$" (str.at var47 84)))
(assert (= "D" (str.at var57 984)))
(assert (= "n" (str.at var58 607)))
(assert (= "|" (str.at var23 215)))
(assert (= "I" (str.at var29 783)))
(assert (= "'" (str.at var45 127)))
(assert (= "@" (str.at var40 587)))
(assert (= "Y" (str.at var3 769)))
(assert (= "t" (str.at var0 506)))
(assert (= "~" (str.at var27 912)))
(assert (= "y" (str.at var44 725)))
(assert (= "g" (str.at var5 918)))
(assert (= "/" (str.at var27 434)))
(assert (= "i" (str.at var19 865)))
(assert (= "0" (str.at var0 127)))
(assert (= "u" (str.at var20 920)))
(assert (= "A" (str.at var38 886)))
(assert (= "I" (str.at var50 327)))
(assert (= "S" (str.at var46 65)))
(assert (= "g" (str.at var7 367)))
(assert (= "X" (str.at var35 441)))
(assert (= "l" (str.at var18 756)))
(assert (= "z" (str.at var14 74)))
(assert (= "c" (str.at var9 903)))
(assert (= "3" (str.at var59 892)))
(assert (= "," (str.at var57 69)))
(assert (= "f" (str.at var7 737)))
(assert (= "W" (str.at var34 710)))
(assert (= "!" (str.at var24 115)))
(assert (= "w" (str.at var13 495)))
(assert (= "*" (str.at var58 935)))
(assert (= "&" (str.at var36 766)))
(assert (= "l" (str.at var3 171)))
(assert (= "I" (str.at var21 683)))
(assert (= "^" (str.at var5 611)))
(assert (= "T" (str.at var53 878)))
(assert (= "O" (str.at var42 320)))
(assert (= "t" (str.at var21 12)))
(assert (= "-" (str.at var43 210)))
(assert (= "v" (str.at var35 741)))
(assert (= "_" (str.at var23 559)))
(assert (= "b" (str.at var20 685)))
(assert (= "~" (str.at var4 846)))
(assert (= "t" (str.at var5 601)))
(assert (= "l" (str.at var39 990)))
(assert (= "8" (str.at var7 174)))
(assert (= "M" (str.at var23 203)))
(assert (= "`" (str.at var26 296)))
(assert (= "i" (str.at var47 176)))
(assert (= "J" (str.at var56 636)))
(assert (= "e" (str.at var17 249)))
(assert (= "%" (str.at var23 566)))
(assert (= "O" (str.at var3 591)))
(assert (= "_" (str.at var41 791)))
(assert (= "^" (str.at var11 695)))
(assert (= "{" (str.at var4 680)))
(assert (= "." (str.at var33 469)))
(assert (= "z" (str.at var42 556)))
(assert (= "E" (str.at var20 531)))
(assert (= "l" (str.at var0 234)))
(assert (= "s" (str.at var13 936)))
(assert (= "*" (str.at var34 763)))
(assert (= "f" (str.at var59 895)))
(assert (= "s" (str.at var17 300)))
(assert (= "]" (str.at var51 352)))
(assert (= "C" (str.at var4 883)))
(assert (= "s" (str.at var21 850)))
(assert (= "k" (str.at var37 302)))
(assert (= "t" (str.at var43 518)))
(assert (= "J" (str.at var6 898)))
(assert (= "b" (str.at var23 658)))
(assert (= "J" (str.at var55 582)))
(assert (= "Y" (str.at var28 952)))
(assert (= "7" (str.at var2 137)))
(assert (= "X" (str.at var13 65)))
(assert (= """" (str.at var18 505)))
(assert (= "7" (str.at var19 634)))
(assert (= "]" (str.at var4 870)))
(assert (= "c" (str.at var36 905)))
(assert (= """" (str.at var41 930)))
(assert (= "E" (str.at var25 218)))
(assert (= "q" (str.at var38 634)))
(assert (= "E" (str.at var32 270)))
(assert (= "Z" (str.at var14 541)))
(assert (= "p" (str.at var14 871)))
(assert (= "J" (str.at var30 576)))
(assert (= "@" (str.at var20 830)))
(assert (= "2" (str.at var32 620)))
(assert (= ">" (str.at var30 729)))
(assert (= "`" (str.at var40 735)))
(assert (= "3" (str.at var23 415)))
(assert (= "d" (str.at var43 57)))
(assert (= "F" (str.at var25 830)))
(assert (= "U" (str.at var2 738)))
(assert (= "[" (str.at var23 419)))
(assert (= "#" (str.at var33 832)))
(assert (= "T" (str.at var7 859)))
(assert (= "V" (str.at var17 436)))
(assert (= "~" (str.at var49 993)))
(assert (= "6" (str.at var12 248)))
(assert (= "u" (str.at var26 151)))
(assert (= "?" (str.at var37 35)))
(assert (= "?" (str.at var22 821)))
(assert (= "2" (str.at var31 218)))
(assert (= "a" (str.at var40 512)))
(assert (= "2" (str.at var32 518)))
(assert (= "x" (str.at var45 908)))
(assert (= "(" (str.at var13 833)))
(assert (= """" (str.at var40 679)))
(assert (= "#" (str.at var53 178)))
(assert (= ")" (str.at var47 948)))
(assert (= "0" (str.at var18 992)))
(assert (= "S" (str.at var19 555)))
(assert (= "#" (str.at var1 895)))
(assert (= "p" (str.at var53 537)))
(assert (= "/" (str.at var12 579)))
(assert (= "3" (str.at var8 648)))
(assert (= "'" (str.at var6 299)))
(assert (= "V" (str.at var20 98)))
(assert (= "q" (str.at var39 757)))
(assert (= "h" (str.at var30 46)))
(assert (= "T" (str.at var25 295)))
(assert (= "[" (str.at var24 878)))
(assert (= "U" (str.at var33 628)))
(assert (= "2" (str.at var22 141)))
(assert (= "5" (str.at var56 922)))
(assert (= "6" (str.at var48 283)))
(assert (= "$" (str.at var41 590)))
(assert (= "X" (str.at var22 482)))
(assert (= "%" (str.at var11 450)))
(assert (= "Y" (str.at var43 798)))
(assert (= "1" (str.at var29 406)))
(assert (= "8" (str.at var58 3)))
(assert (= "W" (str.at var43 434)))
(assert (= "T" (str.at var57 627)))
(assert (= "K" (str.at var23 871)))
(assert (= """" (str.at var42 596)))
(assert (= "a" (str.at var0 562)))
(assert (= "7" (str.at var39 707)))
(assert (= "G" (str.at var14 862)))
(assert (= "9" (str.at var55 115)))
(assert (= "~" (str.at var5 448)))
(assert (= "Q" (str.at var50 281)))
(assert (= "G" (str.at var15 200)))
(assert (= "*" (str.at var13 159)))
(assert (= "e" (str.at var16 869)))
(assert (= ":" (str.at var9 633)))
(assert (= "0" (str.at var21 170)))
(assert (= "#" (str.at var8 869)))
(assert (= "J" (str.at var51 341)))
(assert (= ")" (str.at var23 482)))
(assert (= "9" (str.at var12 352)))
(assert (= "H" (str.at var6 838)))
(assert (= "J" (str.at var17 239)))
(assert (= ">" (str.at var11 102)))
(assert (= "$" (str.at var6 613)))
(assert (= "S" (str.at var40 154)))
(assert (= "r" (str.at var38 450)))
(assert (= "!" (str.at var6 415)))
(assert (= "/" (str.at var40 182)))
(assert (= "\\" (str.at var23 381)))
(assert (= "q" (str.at var52 209)))
(assert (= "w" (str.at var26 436)))
(assert (= "1" (str.at var16 69)))
(assert (= "(" (str.at var30 158)))
(assert (= "U" (str.at var15 381)))
(assert (= "6" (str.at var36 871)))
(assert (= "_" (str.at var57 341)))
(assert (= "i" (str.at var59 129)))
(assert (= "h" (str.at var16 781)))
(assert (= "N" (str.at var58 887)))
(assert (= "u" (str.at var13 370)))
(assert (= "(" (str.at var56 410)))
(assert (= "V" (str.at var34 487)))
(assert (= "z" (str.at var49 526)))
(assert (= "$" (str.at var56 652)))
(assert (= "4" (str.at var44 267)))
(assert (= "6" (str.at var28 863)))
(assert (= "H" (str.at var4 610)))
(assert (= "]" (str.at var1 881)))
(assert (= "l" (str.at var51 633)))
(assert (= "t" (str.at var12 79)))
(assert (= "O" (str.at var47 654)))
(assert (= "2" (str.at var0 666)))
(assert (= "$" (str.at var35 418)))
(assert (= "B" (str.at var31 132)))
(assert (= "<" (str.at var41 537)))
(assert (= """" (str.at var27 3)))
(assert (= "~" (str.at var20 737)))
(assert (= "t" (str.at var15 497)))
(assert (= "5" (str.at var23 127)))
(assert (= "^" (str.at var8 327)))
(assert (= "#" (str.at var47 295)))
(assert (= "@" (str.at var17 82)))
(assert (= "@" (str.at var33 210)))
(assert (= "/" (str.at var50 653)))
(assert (= "~" (str.at var22 291)))
(assert (= "G" (str.at var60 775)))
(assert (= "X" (str.at var29 581)))
(assert (= "9" (str.at var30 455)))
(assert (= "O" (str.at var24 766)))
(assert (= "#" (str.at var39 793)))
(assert (= "3" (str.at var0 152)))
(assert (= "C" (str.at var47 398)))
(assert (= "$" (str.at var53 678)))
(assert (= "Y" (str.at var12 145)))
(assert (= "k" (str.at var24 822)))
(assert (= "|" (str.at var36 435)))
(assert (= "s" (str.at var8 562)))
(assert (= "6" (str.at var46 807)))
(assert (= "$" (str.at var54 952)))
(assert (= "S" (str.at var52 227)))
(assert (= "4" (str.at var59 667)))
(assert (= "S" (str.at var23 311)))
(assert (= "[" (str.at var41 674)))
(assert (= "^" (str.at var22 829)))
(assert (= "," (str.at var0 803)))
(assert (= """" (str.at var43 689)))
(assert (= "7" (str.at var0 981)))
(assert (= "}" (str.at var58 568)))
(assert (= "4" (str.at var50 181)))
(assert (= "h" (str.at var60 392)))
(assert (= "l" (str.at var17 273)))
(assert (= "=" (str.at var40 230)))
(assert (= "A" (str.at var55 542)))
(assert (= "0" (str.at var57 228)))
(assert (= "w" (str.at var39 18)))
(assert (= "N" (str.at var20 529)))
(assert (= "-" (str.at var20 200)))
(assert (= "w" (str.at var60 93)))
(assert (= "g" (str.at var9 48)))
(assert (= "H" (str.at var59 187)))
(assert (= "`" (str.at var55 913)))
(assert (= "m" (str.at var2 846)))
(assert (= "?" (str.at var35 787)))
(assert (= "f" (str.at var28 85)))
(assert (= "H" (str.at var58 496)))
(assert (= "W" (str.at var30 250)))
(assert (= "#" (str.at var7 260)))
(assert (= "(" (str.at var29 608)))
(assert (= "L" (str.at var37 445)))
(assert (= "8" (str.at var27 780)))
(assert (= "7" (str.at var1 900)))
(assert (= "*" (str.at var55 308)))
(assert (= "&" (str.at var3 468)))
(assert (= "W" (str.at var49 512)))
(assert (= "I" (str.at var40 133)))
(assert (= "%" (str.at var27 336)))
(assert (= "]" (str.at var35 815)))
(assert (= "*" (str.at var14 686)))
(assert (= "Z" (str.at var49 655)))
(assert (= "*" (str.at var44 732)))
(assert (= "b" (str.at var38 704)))
(assert (= ">" (str.at var10 794)))
(assert (= "1" (str.at var21 978)))
(assert (= "." (str.at var30 390)))
(assert (= "n" (str.at var12 993)))
(assert (= "U" (str.at var34 562)))
(assert (= """" (str.at var52 51)))
(assert (= "F" (str.at var29 471)))
(assert (= "'" (str.at var28 376)))
(assert (= "V" (str.at var58 946)))
(assert (= "r" (str.at var1 526)))
(assert (= "6" (str.at var10 116)))
(assert (= "c" (str.at var19 631)))
(assert (= "6" (str.at var23 548)))
(assert (= "S" (str.at var11 88)))
(assert (= "&" (str.at var28 336)))
(assert (= "f" (str.at var43 660)))
(assert (= "c" (str.at var33 992)))
(assert (= "o" (str.at var17 442)))
(assert (= "#" (str.at var23 3)))
(assert (= "|" (str.at var26 201)))
(assert (= "_" (str.at var52 640)))
(assert (= "@" (str.at var58 789)))
(assert (= "p" (str.at var47 925)))
(assert (= "t" (str.at var23 759)))
(assert (= "!" (str.at var24 308)))
(assert (= "u" (str.at var52 97)))
(assert (= "6" (str.at var28 390)))
(assert (= "t" (str.at var33 627)))
(assert (= "f" (str.at var50 677)))
(assert (= "q" (str.at var24 35)))
(assert (= "D" (str.at var23 959)))
(assert (= "8" (str.at var0 711)))
(assert (= "r" (str.at var43 501)))
(assert (= "^" (str.at var27 456)))
(assert (= "h" (str.at var27 929)))
(assert (= "f" (str.at var27 85)))
(assert (= "T" (str.at var23 232)))
(assert (= "_" (str.at var10 994)))
(assert (= "n" (str.at var37 709)))
(assert (= ">" (str.at var21 422)))
(assert (= "B" (str.at var3 515)))
(assert (= "l" (str.at var36 870)))
(assert (= "+" (str.at var38 646)))
(assert (= "P" (str.at var55 228)))
(assert (= "2" (str.at var23 343)))
(assert (= "E" (str.at var6 362)))
(assert (= "$" (str.at var20 504)))
(assert (= "]" (str.at var26 580)))
(assert (= "q" (str.at var32 460)))
(assert (= ")" (str.at var3 792)))
(assert (= "`" (str.at var41 497)))
(assert (= "|" (str.at var22 463)))
(assert (= "s" (str.at var52 326)))
(assert (= "?" (str.at var13 762)))
(assert (= "m" (str.at var13 685)))
(assert (= "<" (str.at var0 43)))
(assert (= "}" (str.at var23 985)))
(assert (= "T" (str.at var28 696)))
(assert (= "M" (str.at var15 711)))
(assert (= "u" (str.at var37 121)))
(assert (= "n" (str.at var36 251)))
(assert (= ";" (str.at var30 155)))
(assert (= "!" (str.at var26 438)))
(assert (= "L" (str.at var14 159)))
(assert (= "q" (str.at var0 111)))
(assert (= "r" (str.at var7 966)))
(assert (= ")" (str.at var0 0)))
(assert (= "<" (str.at var56 173)))
(assert (= "\\" (str.at var15 898)))
(assert (= "," (str.at var3 755)))
(assert (= "i" (str.at var5 807)))
(assert (= "y" (str.at var3 238)))
(assert (= """" (str.at var6 807)))
(assert (= "h" (str.at var37 885)))
(assert (= """" (str.at var60 804)))
(assert (= "d" (str.at var0 653)))
(assert (= "+" (str.at var35 563)))
(assert (= "F" (str.at var5 766)))
(assert (= """" (str.at var35 105)))
(assert (= "E" (str.at var46 37)))
(assert (= "i" (str.at var52 806)))
(assert (= "(" (str.at var16 542)))
(assert (= "8" (str.at var57 7)))
(assert (= "*" (str.at var4 573)))
(assert (= "U" (str.at var56 689)))
(assert (= "3" (str.at var53 211)))
(assert (= "x" (str.at var56 250)))
(assert (= "?" (str.at var21 661)))
(assert (= "1" (str.at var20 857)))
(assert (= ";" (str.at var20 442)))
(assert (= "H" (str.at var5 854)))
(assert (= "H" (str.at var8 789)))
(assert (= "6" (str.at var55 678)))
(assert (= "4" (str.at var60 46)))
(assert (= "Z" (str.at var11 465)))
(assert (= "x" (str.at var44 737)))
(assert (= "'" (str.at var48 66)))
(assert (= "2" (str.at var43 476)))
(assert (= ":" (str.at var49 373)))
(assert (= "c" (str.at var47 705)))
(assert (= "A" (str.at var6 91)))
(assert (= "B" (str.at var5 199)))
(assert (= "c" (str.at var39 311)))
(assert (= "s" (str.at var47 442)))
(assert (= "q" (str.at var59 277)))
(assert (= "y" (str.at var49 997)))
(assert (= "!" (str.at var49 17)))
(assert (= "7" (str.at var17 201)))
(assert (= "2" (str.at var32 359)))
(assert (= "D" (str.at var18 804)))
(assert (= "<" (str.at var38 398)))
(assert (= "L" (str.at var47 783)))
(assert (= "=" (str.at var53 894)))
(assert (= "=" (str.at var47 380)))
(assert (= "(" (str.at var42 79)))
(assert (= "E" (str.at var6 272)))
(assert (= "Y" (str.at var5 309)))
(assert (= "F" (str.at var2 415)))
(assert (= "<" (str.at var10 573)))
(assert (= "1" (str.at var44 583)))
(assert (= "$" (str.at var32 661)))
(assert (= "B" (str.at var46 261)))
(assert (= "|" (str.at var22 948)))
(assert (= "+" (str.at var4 477)))
(assert (= "7" (str.at var18 586)))
(assert (= "G" (str.at var9 29)))
(assert (= "x" (str.at var8 425)))
(assert (= "n" (str.at var50 785)))
(assert (= "|" (str.at var38 615)))
(assert (= "," (str.at var58 572)))
(assert (= "," (str.at var33 456)))
(assert (= "(" (str.at var44 699)))
(assert (= "'" (str.at var20 668)))
(assert (= "M" (str.at var18 695)))
(assert (= "'" (str.at var18 136)))
(assert (= "x" (str.at var2 131)))
(assert (= "{" (str.at var45 234)))
(assert (= "U" (str.at var25 387)))
(assert (= "[" (str.at var22 413)))
(assert (= "?" (str.at var59 409)))
(assert (= "'" (str.at var40 221)))
(assert (= "D" (str.at var14 630)))
(assert (= "#" (str.at var25 916)))
(assert (= ";" (str.at var35 240)))
(assert (= "I" (str.at var32 944)))
(assert (= "_" (str.at var58 700)))
(assert (= "-" (str.at var0 946)))
(assert (= "*" (str.at var5 636)))
(assert (= "E" (str.at var20 965)))
(assert (= "c" (str.at var40 784)))
(assert (= "^" (str.at var14 933)))
(assert (= "X" (str.at var28 151)))
(assert (= "e" (str.at var31 975)))
(assert (= "j" (str.at var26 863)))
(assert (= "&" (str.at var12 447)))
(assert (= "|" (str.at var35 794)))
(assert (= "p" (str.at var25 231)))
(assert (= "7" (str.at var44 195)))
(assert (= "Q" (str.at var28 331)))
(assert (= "C" (str.at var29 286)))
(assert (= "<" (str.at var21 393)))
(assert (= "x" (str.at var13 425)))
(assert (= "G" (str.at var2 987)))
(assert (= "E" (str.at var2 944)))
(assert (= "z" (str.at var3 1000)))
(assert (= "H" (str.at var33 136)))
(assert (= "I" (str.at var44 715)))
(assert (= "i" (str.at var36 350)))
(assert (= "o" (str.at var51 101)))
(assert (= "C" (str.at var44 352)))
(assert (= "n" (str.at var32 693)))
(assert (= "%" (str.at var41 470)))
(assert (= "X" (str.at var2 685)))
(assert (= "B" (str.at var19 448)))
(assert (= "w" (str.at var12 204)))
(assert (= "M" (str.at var8 749)))
(assert (= "~" (str.at var49 182)))
(assert (= "N" (str.at var46 695)))
(assert (= "9" (str.at var53 209)))
(assert (= "=" (str.at var2 744)))
(assert (= "H" (str.at var48 743)))
(assert (= "4" (str.at var8 986)))
(assert (= "," (str.at var12 733)))
(assert (= "K" (str.at var51 409)))
(assert (= "y" (str.at var54 278)))
(assert (= "S" (str.at var46 564)))
(assert (= "P" (str.at var35 745)))
(assert (= "'" (str.at var6 568)))
(assert (= "0" (str.at var0 83)))
(assert (= "d" (str.at var50 476)))
(assert (= ":" (str.at var60 76)))
(assert (= "5" (str.at var45 833)))
(assert (= "W" (str.at var59 181)))
(assert (= "B" (str.at var23 305)))
(assert (= "C" (str.at var23 345)))
(assert (= "_" (str.at var12 726)))
(assert (= "H" (str.at var52 260)))
(assert (= "[" (str.at var42 262)))
(assert (= "u" (str.at var30 299)))
(assert (= "A" (str.at var24 929)))
(assert (= "}" (str.at var30 527)))
(assert (= "F" (str.at var38 586)))
(assert (= "6" (str.at var10 699)))
(assert (= "l" (str.at var0 527)))
(assert (= "," (str.at var37 79)))
(assert (= "w" (str.at var2 319)))
(assert (= "<" (str.at var4 966)))
(assert (= "9" (str.at var14 559)))
(assert (= "@" (str.at var6 630)))
(assert (= "," (str.at var27 669)))
(assert (= "V" (str.at var55 266)))
(assert (= "+" (str.at var38 260)))
(assert (= "G" (str.at var16 56)))
(assert (= "O" (str.at var0 17)))
(assert (= "j" (str.at var42 17)))
(assert (= "t" (str.at var55 854)))
(assert (= "r" (str.at var24 127)))
(assert (= "C" (str.at var54 345)))
(assert (= "e" (str.at var24 689)))
(assert (= "Y" (str.at var34 271)))
(assert (= "4" (str.at var5 835)))
(assert (= "k" (str.at var55 834)))
(check-sat)